#######################################
### Exact MIP solver for the HHCRSP ###
#######################################
-- Instance file: new-instances/HHCRSP_100_20_17_0.4_R_RC.txt
-- Max threads: 4
-- Time limit: 999999 seconds
-- Use initial solution: No
Trivial flow violations prevented generating 45705 variables.
Model exported.
Version identifier: 20.1.0.0 | 2020-11-10 | 9bedb6d68
CPXPARAM_Threads                                 4
CPXPARAM_TimeLimit                               999999
Parallel mode: deterministic, using up to 4 threads for concurrent optimization:
 * Starting dual Simplex on 1 thread...
 * Starting Barrier on 3 threads...
Tried aggregator 1 time.
LP Presolve eliminated 5532 rows and 1354 columns.
Reduced LP has 53574 rows, 51377 columns, and 603904 nonzeros.
Presolve time = 0.51 sec. (157.67 ticks)
Symmetry aggregator did 58020 additional substitutions.

Iteration log . . .
Iteration:     1   Dual objective     =             0.000000
Iteration:   481   Dual objective     =           179.000000

Dual crossover.
  Dual:  Fixing 274 variables.
      273 DMoves:  Infeasibility  8.85958041e-14  Objective  1.79000000e+02
        0 DMoves:  Infeasibility  7.58559949e-14  Objective  1.79000000e+02
  Dual:  Pushed 13, exchanged 261.
  Primal:  Fixing 135 variables.
      134 PMoves:  Infeasibility  4.16333634e-16  Objective  1.79000000e+02
        0 PMoves:  Infeasibility  4.16333634e-16  Objective  1.79000000e+02
  Primal:  Pushed 84, exchanged 51.

Dual simplex solved model.


Solution status from MIP model:
-- Processing time: 0.802 sec.
-- Memory used: 120.122 MB
-- Best bound: inf
-- Obj value: 179
-- Gap: inf%
-- Total distance: 537
-- Total tardiness: 0
-- Largest tardiness: 0
